(set-info :source |printed by MathSAT|)
(declare-fun call_mesi.ite11 () Int)
(declare-fun call_mesi.ite7 () Int)
(declare-fun call_mesi.ite9 () Int)
(declare-fun call_mesi.ite8 () Int)
(declare-fun shared_me () Int)
(declare-fun call_mesi.invalid_me () Int)
(declare-fun call_mesi.ite13 () Int)
(declare-fun call_mesi.ite3 () Int)
(declare-fun call_mesi.modified_me () Int)
(declare-fun call_mesi.ite () Int)
(declare-fun param_etat_me2 () Bool)
(declare-fun call_mesi.ite25 () Int)
(declare-fun call_mesi.garde_me1 () Bool)
(declare-fun call_Abs.Abs () Int)
(declare-fun call_mesi.ite4 () Int)
(declare-fun call_mesi.garde_me4 () Bool)
(declare-fun call_mesi.ite22 () Int)
(declare-fun call_mesi.ite21 () Int)
(declare-fun call_mesi.shared_me () Int)
(declare-fun call_mesi.ite31 () Int)
(declare-fun call_mesi.ite19 () Int)
(declare-fun call_Sofar.Sofar () Bool)
(declare-fun _OK_ () Bool)
(declare-fun call_mesi.ite15 () Int)
(declare-fun call_mesi.ite24 () Int)
(declare-fun call_mesi.ite20 () Int)
(declare-fun param_etat_me1 () Bool)
(declare-fun call_Abs4.Abs () Int)
(declare-fun call_mesi.ite6 () Int)
(declare-fun call_Abs.ite () Int)
(declare-fun call_mesi.ite5 () Int)
(declare-fun call_mesi.ite16 () Int)
(declare-fun call_mesi.ite29 () Int)
(declare-fun call_mesi.ite30 () Int)
(declare-fun exclusive_me () Int)
(declare-fun call_mesi.ite28 () Int)
(declare-fun param_etat_me3 () Bool)
(declare-fun param_etat_me4 () Bool)
(declare-fun call_mesi.exclusive_me () Int)
(declare-fun call_mesi.ite27 () Int)
(declare-fun call_mesi.flby4 () Int)
(declare-fun modified_me () Int)
(declare-fun invalid_me () Int)
(declare-fun env () Bool)
(declare-fun call_Sofar.flby () Bool)
(declare-fun call_Abs2.Abs () Int)
(declare-fun call_mesi.flby3 () Int)
(declare-fun call_mesi.ite10 () Int)
(declare-fun call_Abs4.ite () Int)
(declare-fun call_Abs2.ite () Int)
(declare-fun call_mesi.ite32 () Int)
(declare-fun call_mesi.ite2 () Int)
(declare-fun call_mesi.flby2 () Int)
(declare-fun call_mesi.ite18 () Int)
(declare-fun call_mesi.garde_me3 () Bool)
(declare-fun call_mesi.flby () Int)
(declare-fun call_Abs3.ite () Int)
(declare-fun call_mesi.ite17 () Int)
(declare-fun call_mesi.ite26 () Int)
(declare-fun call_mesi.ite23 () Int)
(declare-fun call_mesi.ite12 () Int)
(declare-fun call_mesi.ite14 () Int)
(declare-fun call_Abs3.Abs () Int)
(declare-fun call_excludes4.excludes () Bool)
(define-fun .def_969 () Bool (= call_excludes4.excludes call_Sofar.flby))
(define-fun .def_967 () Bool (= call_mesi.flby4 3))
(define-fun .def_965 () Bool (= call_mesi.flby3 0))
(define-fun .def_963 () Bool (= call_mesi.flby2 0))
(define-fun .def_961 () Bool (= call_mesi.flby 0))
(define-fun .def_957 () Bool (= call_mesi.ite20 0))
(define-fun .def_952 () Bool (not call_mesi.garde_me4))
(define-fun .def_958 () Bool (or .def_952 .def_957))
(define-fun .def_954 () Bool (= call_mesi.ite4 0))
(define-fun .def_955 () Bool (or .def_952 .def_954))
(define-fun .def_950 () Bool (= call_mesi.ite12 1))
(define-fun .def_953 () Bool (or .def_950 .def_952))
(define-fun .def_956 () Bool (and .def_953 .def_955))
(define-fun .def_959 () Bool (and .def_956 .def_958))
(define-fun .def_946 () Bool (= call_mesi.ite19 0))
(define-fun .def_941 () Bool (not call_mesi.garde_me3))
(define-fun .def_947 () Bool (or .def_941 .def_946))
(define-fun .def_943 () Bool (= call_mesi.ite3 0))
(define-fun .def_944 () Bool (or .def_941 .def_943))
(define-fun .def_939 () Bool (= call_mesi.ite11 1))
(define-fun .def_942 () Bool (or .def_939 .def_941))
(define-fun .def_945 () Bool (and .def_942 .def_944))
(define-fun .def_948 () Bool (and .def_945 .def_947))
(define-fun .def_935 () Bool (= call_mesi.ite 0))
(define-fun .def_933 () Bool (not call_mesi.garde_me1))
(define-fun .def_936 () Bool (or .def_933 .def_935))
(define-fun .def_931 () Bool (= call_mesi.ite9 0))
(define-fun .def_934 () Bool (or .def_931 .def_933))
(define-fun .def_937 () Bool (and .def_934 .def_936))
(define-fun .def_928 () Bool (= call_mesi.ite29 call_mesi.ite28))
(define-fun .def_917 () Bool (not param_etat_me4))
(define-fun .def_929 () Bool (or .def_917 .def_928))
(define-fun .def_924 () Bool (= call_mesi.ite21 call_mesi.ite20))
(define-fun .def_925 () Bool (or .def_917 .def_924))
(define-fun .def_920 () Bool (= call_mesi.ite5 call_mesi.ite4))
(define-fun .def_921 () Bool (or .def_917 .def_920))
(define-fun .def_916 () Bool (= call_mesi.ite13 call_mesi.ite12))
(define-fun .def_918 () Bool (or .def_916 .def_917))
(define-fun .def_922 () Bool (and .def_918 .def_921))
(define-fun .def_926 () Bool (and .def_922 .def_925))
(define-fun .def_930 () Bool (and .def_926 .def_929))
(define-fun .def_938 () Bool (and .def_930 .def_937))
(define-fun .def_949 () Bool (and .def_938 .def_948))
(define-fun .def_960 () Bool (and .def_949 .def_959))
(define-fun .def_962 () Bool (and .def_960 .def_961))
(define-fun .def_964 () Bool (and .def_962 .def_963))
(define-fun .def_966 () Bool (and .def_964 .def_965))
(define-fun .def_968 () Bool (and .def_966 .def_967))
(define-fun .def_970 () Bool (and .def_968 .def_969))
(define-fun .def_913 () Bool (= call_Abs4.Abs call_Abs4.ite))
(define-fun .def_911 () Bool (= call_Abs3.Abs call_Abs3.ite))
(define-fun .def_909 () Bool (= call_Abs2.Abs call_Abs2.ite))
(define-fun .def_907 () Bool (= call_Abs.Abs call_Abs.ite))
(define-fun .def_905 () Bool (= call_Sofar.Sofar call_Sofar.flby))
(define-fun .def_898 () Bool (and param_etat_me3 param_etat_me4))
(define-fun .def_896 () Bool (and param_etat_me2 param_etat_me4))
(define-fun .def_894 () Bool (and param_etat_me3 param_etat_me2))
(define-fun .def_891 () Bool (and param_etat_me2 param_etat_me1))
(define-fun .def_890 () Bool (and param_etat_me3 param_etat_me1))
(define-fun .def_892 () Bool (or .def_890 .def_891))
(define-fun .def_889 () Bool (and param_etat_me1 param_etat_me4))
(define-fun .def_893 () Bool (or .def_889 .def_892))
(define-fun .def_895 () Bool (or .def_893 .def_894))
(define-fun .def_897 () Bool (or .def_895 .def_896))
(define-fun .def_899 () Bool (or .def_897 .def_898))
(define-fun .def_900 () Bool (not .def_899))
(define-fun .def_902 () Bool (= .def_900 call_excludes4.excludes))
(define-fun .def_886 () Bool (= call_mesi.invalid_me call_mesi.flby4))
(define-fun .def_883 () Bool (= call_mesi.shared_me call_mesi.flby3))
(define-fun .def_880 () Bool (= call_mesi.exclusive_me call_mesi.flby2))
(define-fun .def_877 () Bool (= call_mesi.modified_me call_mesi.flby))
(define-fun .def_872 () Bool (= call_mesi.ite31 call_mesi.ite32))
(define-fun .def_873 () Bool (or param_etat_me1 .def_872))
(define-fun .def_869 () Bool (= call_mesi.ite25 call_mesi.ite32))
(define-fun .def_848 () Bool (not param_etat_me1))
(define-fun .def_870 () Bool (or .def_848 .def_869))
(define-fun .def_864 () Bool (= call_mesi.ite23 call_mesi.ite24))
(define-fun .def_865 () Bool (or param_etat_me1 .def_864))
(define-fun .def_861 () Bool (= call_mesi.ite17 call_mesi.ite24))
(define-fun .def_862 () Bool (or .def_848 .def_861))
(define-fun .def_856 () Bool (= call_mesi.ite15 call_mesi.ite16))
(define-fun .def_857 () Bool (or param_etat_me1 .def_856))
(define-fun .def_853 () Bool (= call_mesi.ite16 call_mesi.ite9))
(define-fun .def_854 () Bool (or .def_848 .def_853))
(define-fun .def_847 () Bool (= call_mesi.ite8 call_mesi.ite))
(define-fun .def_849 () Bool (or .def_847 .def_848))
(define-fun .def_843 () Bool (= call_mesi.ite7 call_mesi.ite8))
(define-fun .def_845 () Bool (or .def_843 param_etat_me1))
(define-fun .def_850 () Bool (and .def_845 .def_849))
(define-fun .def_855 () Bool (and .def_850 .def_854))
(define-fun .def_858 () Bool (and .def_855 .def_857))
(define-fun .def_863 () Bool (and .def_858 .def_862))
(define-fun .def_866 () Bool (and .def_863 .def_865))
(define-fun .def_871 () Bool (and .def_866 .def_870))
(define-fun .def_874 () Bool (and .def_871 .def_873))
(define-fun .def_840 () Bool (= env call_Sofar.Sofar))
(define-fun .def_836 () Bool (= invalid_me call_mesi.invalid_me))
(define-fun .def_831 () Int (+ invalid_me call_Abs4.ite))
(define-fun .def_832 () Bool (= .def_831 0))
(define-fun .def_828 () Bool (<= 0 invalid_me))
(define-fun .def_833 () Bool (or .def_828 .def_832))
(define-fun .def_829 () Bool (not .def_828))
(define-fun .def_827 () Bool (= invalid_me call_Abs4.ite))
(define-fun .def_830 () Bool (or .def_827 .def_829))
(define-fun .def_834 () Bool (and .def_830 .def_833))
(define-fun .def_837 () Bool (and .def_834 .def_836))
(define-fun .def_822 () Bool (= shared_me call_mesi.shared_me))
(define-fun .def_817 () Int (+ shared_me call_Abs3.ite))
(define-fun .def_818 () Bool (= .def_817 0))
(define-fun .def_814 () Bool (<= 0 shared_me))
(define-fun .def_819 () Bool (or .def_814 .def_818))
(define-fun .def_815 () Bool (not .def_814))
(define-fun .def_813 () Bool (= shared_me call_Abs3.ite))
(define-fun .def_816 () Bool (or .def_813 .def_815))
(define-fun .def_820 () Bool (and .def_816 .def_819))
(define-fun .def_823 () Bool (and .def_820 .def_822))
(define-fun .def_808 () Bool (= exclusive_me call_mesi.exclusive_me))
(define-fun .def_803 () Int (+ exclusive_me call_Abs2.ite))
(define-fun .def_804 () Bool (= .def_803 0))
(define-fun .def_800 () Bool (<= 0 exclusive_me))
(define-fun .def_805 () Bool (or .def_800 .def_804))
(define-fun .def_801 () Bool (not .def_800))
(define-fun .def_799 () Bool (= exclusive_me call_Abs2.ite))
(define-fun .def_802 () Bool (or .def_799 .def_801))
(define-fun .def_806 () Bool (and .def_802 .def_805))
(define-fun .def_809 () Bool (and .def_806 .def_808))
(define-fun .def_794 () Bool (= modified_me call_mesi.modified_me))
(define-fun .def_789 () Int (+ modified_me call_Abs.ite))
(define-fun .def_790 () Bool (= .def_789 0))
(define-fun .def_786 () Bool (<= 0 modified_me))
(define-fun .def_791 () Bool (or .def_786 .def_790))
(define-fun .def_787 () Bool (not .def_786))
(define-fun .def_785 () Bool (= modified_me call_Abs.ite))
(define-fun .def_788 () Bool (or .def_785 .def_787))
(define-fun .def_792 () Bool (and .def_788 .def_791))
(define-fun .def_795 () Bool (and .def_792 .def_794))
(define-fun .def_776 () Int (+ call_Abs3.Abs call_Abs4.Abs))
(define-fun .def_777 () Int (+ call_Abs2.Abs .def_776))
(define-fun .def_778 () Int (+ call_Abs.Abs .def_777))
(define-fun .def_779 () Bool (<= .def_778 3))
(define-fun .def_768 () Bool (not env))
(define-fun .def_780 () Bool (or .def_768 .def_779))
(define-fun .def_781 () Bool (= _OK_ .def_780))
(define-fun .def_762 () Bool (= call_mesi.ite30 call_mesi.ite31))
(define-fun .def_763 () Bool (or param_etat_me2 .def_762))
(define-fun .def_759 () Bool (= call_mesi.ite26 call_mesi.ite31))
(define-fun .def_738 () Bool (not param_etat_me2))
(define-fun .def_760 () Bool (or .def_738 .def_759))
(define-fun .def_754 () Bool (= call_mesi.ite22 call_mesi.ite23))
(define-fun .def_755 () Bool (or param_etat_me2 .def_754))
(define-fun .def_751 () Bool (= call_mesi.ite18 call_mesi.ite23))
(define-fun .def_752 () Bool (or .def_738 .def_751))
(define-fun .def_746 () Bool (= call_mesi.ite14 call_mesi.ite15))
(define-fun .def_747 () Bool (or param_etat_me2 .def_746))
(define-fun .def_743 () Bool (= call_mesi.ite10 call_mesi.ite15))
(define-fun .def_744 () Bool (or .def_738 .def_743))
(define-fun .def_737 () Bool (= call_mesi.ite7 call_mesi.ite2))
(define-fun .def_739 () Bool (or .def_737 .def_738))
(define-fun .def_733 () Bool (= call_mesi.ite6 call_mesi.ite7))
(define-fun .def_735 () Bool (or .def_733 param_etat_me2))
(define-fun .def_740 () Bool (and .def_735 .def_739))
(define-fun .def_745 () Bool (and .def_740 .def_744))
(define-fun .def_748 () Bool (and .def_745 .def_747))
(define-fun .def_753 () Bool (and .def_748 .def_752))
(define-fun .def_756 () Bool (and .def_753 .def_755))
(define-fun .def_761 () Bool (and .def_756 .def_760))
(define-fun .def_764 () Bool (and .def_761 .def_763))
(define-fun .def_729 () Bool (= call_mesi.ite30 call_mesi.ite29))
(define-fun .def_730 () Bool (or param_etat_me3 .def_729))
(define-fun .def_725 () Bool (= call_mesi.ite27 call_mesi.ite30))
(define-fun .def_702 () Bool (not param_etat_me3))
(define-fun .def_726 () Bool (or .def_702 .def_725))
(define-fun .def_720 () Bool (= call_mesi.ite22 call_mesi.ite21))
(define-fun .def_721 () Bool (or param_etat_me3 .def_720))
(define-fun .def_716 () Bool (= call_mesi.ite22 call_mesi.ite19))
(define-fun .def_717 () Bool (or .def_702 .def_716))
(define-fun .def_711 () Bool (= call_mesi.ite14 call_mesi.ite13))
(define-fun .def_712 () Bool (or param_etat_me3 .def_711))
(define-fun .def_707 () Bool (= call_mesi.ite14 call_mesi.ite11))
(define-fun .def_708 () Bool (or .def_702 .def_707))
(define-fun .def_701 () Bool (= call_mesi.ite6 call_mesi.ite3))
(define-fun .def_703 () Bool (or .def_701 .def_702))
(define-fun .def_697 () Bool (= call_mesi.ite6 call_mesi.ite5))
(define-fun .def_699 () Bool (or .def_697 param_etat_me3))
(define-fun .def_704 () Bool (and .def_699 .def_703))
(define-fun .def_709 () Bool (and .def_704 .def_708))
(define-fun .def_713 () Bool (and .def_709 .def_712))
(define-fun .def_718 () Bool (and .def_713 .def_717))
(define-fun .def_722 () Bool (and .def_718 .def_721))
(define-fun .def_727 () Bool (and .def_722 .def_726))
(define-fun .def_731 () Bool (and .def_727 .def_730))
(define-fun .def_765 () Bool (and .def_731 .def_764))
(define-fun .def_782 () Bool (and .def_765 .def_781))
(define-fun .def_796 () Bool (and .def_782 .def_795))
(define-fun .def_810 () Bool (and .def_796 .def_809))
(define-fun .def_824 () Bool (and .def_810 .def_823))
(define-fun .def_838 () Bool (and .def_824 .def_837))
(define-fun .def_841 () Bool (and .def_838 .def_840))
(define-fun .def_875 () Bool (and .def_841 .def_874))
(define-fun .def_878 () Bool (and .def_875 .def_877))
(define-fun .def_881 () Bool (and .def_878 .def_880))
(define-fun .def_884 () Bool (and .def_881 .def_883))
(define-fun .def_887 () Bool (and .def_884 .def_886))
(define-fun .def_903 () Bool (and .def_887 .def_902))
(define-fun .def_906 () Bool (and .def_903 .def_905))
(define-fun .def_908 () Bool (and .def_906 .def_907))
(define-fun .def_910 () Bool (and .def_908 .def_909))
(define-fun .def_912 () Bool (and .def_910 .def_911))
(define-fun .def_914 () Bool (and .def_912 .def_913))
(define-fun .def_971 () Bool (and .def_914 .def_970))
(assert .def_971)
